SPARKNaCl/why3-z3/sparknacl-aes.adb_683_31_loop_variant_1.smt2
;; produced by z3_gnatprove.drv ;;
(set-info :smt-lib-version 2.5)
(set-info :source |VC generated by SPARK 2014|)
(set-info :category industrial)
(set-info :status unknown)
;;; generated by SMT-LIB2 driver
;;; SMT-LIB2 driver: bit-vectors, common part
;;; SMT-LIB2: integer arithmetic
(declare-datatypes ()
  ((int__ref (int__refqtmk (int__content Int)))))

(declare-datatypes ()
  ((t__ref (t__refqtmk (t__content (_ BitVec 32))))))

(declare-sort u32 0)

;; "to_rep"
(declare-fun to_rep (u32) (_ BitVec 32))

;; "of_rep"
(declare-fun of_rep ((_ BitVec 32)) u32)

;; "inversion_axiom"
(assert
  (forall ((x u32)) (! (= (of_rep (to_rep x)) x) :pattern ((to_rep x)) )))

;; "range_axiom"
(assert true)

;; "coerce_axiom"
(assert
  (forall ((x (_ BitVec 32)))
    (! (= (to_rep (of_rep x)) x) :pattern ((to_rep (of_rep x))) )))

(declare-sort map1 0)

(declare-datatypes ()
  ((map__ref (map__refqtmk (map__content map1)))))

;; "has_bounds"
(declare-fun has_bounds (map1
  Int
  Int) Bool)

;; "get"
(declare-fun get (map1
  Int) u32)

;; "set"
(declare-fun set (map1
  Int
  u32) map1)

;; "set_eq"
(assert
  (forall ((a map1) (i Int) (v u32))
    (! (= (get (set a i v) i) v) :pattern ((set a i v)) )))

;; "set_neq"
(assert
  (forall ((a map1) (i Int) (v u32))
    (! (forall ((j Int))
         (! (=> (not (= i j)) (= (get (set a i v) j) (get a j))) :pattern (
         (get
           a
           j)) :pattern ((get (set a i v) j)) )) :pattern ((set a i v)) )))

;; "set_has_bounds"
(assert
  (forall ((a map1) (i Int) (f Int) (l Int) (v u32))
    (! (=>
         (and (<= f i) (<= i l))
         (=> (has_bounds a f l) (has_bounds (set a i v) f l))) :pattern (
    (has_bounds
      (set a i v)
      f
      l)) )))

;; "slide"
(declare-fun slide (map1
  Int
  Int) map1)

;; "slide_eq"
(assert
  (forall ((a map1) (first Int))
    (! (= (slide a first first) a) :pattern ((slide a first first)) )))

;; "slide_def"
(assert
  (forall ((a map1) (old_first Int) (new_first Int))
    (! (and
         (forall ((i Int))
           (! (= (get (slide a old_first new_first) i) (get
                                                         a
                                                         (- i (- new_first old_first)))) :pattern (
           (get
             (slide a old_first new_first)
             i)) ))
         (forall ((new_last Int))
           (! (=>
                (has_bounds a old_first (- new_last (- new_first old_first)))
                (has_bounds (slide a old_first new_first) new_first new_last)) :pattern (
           (has_bounds
             (slide a old_first new_first)
             new_first
             new_last)) ))) :pattern ((slide a old_first new_first)) )))

;; "slice"
(declare-fun slice (map1
  Int
  Int) map1)

;; "slice_eq"
(assert
  (forall ((a map1) (f Int) (l Int))
    (! (=> (has_bounds a f l) (= (slice a f l) a)) :pattern ((slice a f l)
    (has_bounds a f l)) )))

;; "slice_slice"
(assert
  (forall ((a map1) (f1 Int) (l1 Int) (f2 Int) (l2 Int))
    (! (=>
         (and (<= f1 f2) (<= l2 l1))
         (= (slice (slice a f1 l1) f2 l2) (slice a f2 l2))) :pattern (
    (slice
      (slice a f1 l1)
      f2
      l2)) )))

;; "slice_def"
(assert
  (forall ((a map1) (f Int) (l Int))
    (! (forall ((i Int))
         (! (=> (and (<= f i) (<= i l)) (= (get (slice a f l) i) (get a i))) :pattern (
         (get
           (slice a f l)
           i)) :pattern ((get a i)) )) :pattern ((slice a f l)) )))

;; "slice_has_bounds"
(assert
  (forall ((a map1) (f Int) (l Int))
    (! (has_bounds (slice a f l) f l) :pattern ((has_bounds
                                                  (slice a f l)
                                                  f
                                                  l)) )))

(declare-datatypes ()
  ((us_split_fields
   (us_split_fieldsqtmk (rec__ada___sparknacl__aes__aes128_key__f map1)))))

(declare-datatypes ()
  ((us_rep (us_repqtmk (us_split_fields1 us_split_fields)))))

(declare-datatypes ()
  ((u32__init_wrapper
   (u32__init_wrapperqtmk (rec__value u32)(us_attr__init Bool)))))

(declare-sort map2 0)

;; "has_bounds"
(declare-fun has_bounds1 (map2
  Int
  Int) Bool)

;; "get"
(declare-fun get1 (map2
  Int) u32__init_wrapper)

;; "convert"
(declare-fun convert (map1) map2)

;; "convert__def"
(assert
  (forall ((a map1))
    (let ((b (convert a)))
      (forall ((temp___170 Int))
        (and
          (= (us_attr__init
               (u32__init_wrapperqtmk
                 (of_rep (to_rep (get a temp___170)))
                 true)) (us_attr__init (get1 b temp___170)))
          (= (to_rep
               (rec__value
                 (u32__init_wrapperqtmk
                   (of_rep (to_rep (get a temp___170)))
                   true))) (to_rep (rec__value (get1 b temp___170)))))))))

;; "dynamic_invariant"
(define-fun dynamic_invariant ((temp___expr_426 us_rep) (temp___is_init_422 Bool) (temp___skip_constant_423 Bool) (temp___do_toplevel_424 Bool) (temp___do_typ_inv_425 Bool)) Bool
  (has_bounds
    (rec__ada___sparknacl__aes__aes128_key__f
      (us_split_fields1 temp___expr_426))
    0
    3))

(declare-sort map3 0)

(declare-datatypes ()
  ((map__ref1 (map__refqtmk1 (map__content1 map3)))))

;; "has_bounds"
(declare-fun has_bounds2 (map3
  Int
  Int) Bool)

;; "get"
(declare-fun get2 (map3
  Int) map2)

;; "set"
(declare-fun set1 (map3
  Int
  map2) map3)

;; "set_eq"
(assert
  (forall ((a map3) (i Int) (v map2))
    (! (= (get2 (set1 a i v) i) v) :pattern ((set1 a i v)) )))

;; "set_neq"
(assert
  (forall ((a map3) (i Int) (v map2))
    (! (forall ((j Int))
         (! (=> (not (= i j)) (= (get2 (set1 a i v) j) (get2 a j))) :pattern (
         (get2
           a
           j)) :pattern ((get2 (set1 a i v) j)) )) :pattern ((set1 a i v)) )))

;; "set_has_bounds"
(assert
  (forall ((a map3) (i Int) (f Int) (l Int) (v map2))
    (! (=>
         (and (<= f i) (<= i l))
         (=> (has_bounds2 a f l) (has_bounds2 (set1 a i v) f l))) :pattern (
    (has_bounds2
      (set1 a i v)
      f
      l)) )))

;; "slice"
(declare-fun slice1 (map3
  Int
  Int) map3)

;; "slice_eq"
(assert
  (forall ((a map3) (f Int) (l Int))
    (! (=> (has_bounds2 a f l) (= (slice1 a f l) a)) :pattern ((slice1 a f l)
    (has_bounds2 a f l)) )))

;; "slice_slice"
(assert
  (forall ((a map3) (f1 Int) (l1 Int) (f2 Int) (l2 Int))
    (! (=>
         (and (<= f1 f2) (<= l2 l1))
         (= (slice1 (slice1 a f1 l1) f2 l2) (slice1 a f2 l2))) :pattern (
    (slice1
      (slice1 a f1 l1)
      f2
      l2)) )))

;; "slice_def"
(assert
  (forall ((a map3) (f Int) (l Int))
    (! (forall ((i Int))
         (! (=>
              (and (<= f i) (<= i l))
              (= (get2 (slice1 a f l) i) (get2 a i))) :pattern ((get2
                                                                  (slice1
                                                                    a
                                                                    f
                                                                    l)
                                                                  i)) :pattern (
         (get2
           a
           i)) )) :pattern ((slice1 a f l)) )))

;; "slice_has_bounds"
(assert
  (forall ((a map3) (f Int) (l Int))
    (! (has_bounds2 (slice1 a f l) f l) :pattern ((has_bounds2
                                                    (slice1 a f l)
                                                    f
                                                    l)) )))

;; "in_range"
(define-fun in_range ((x Int)) Bool
  (and (<= 0 x) (<= x 10)))

;; "__is_initialized"
(define-fun us_is_initialized ((temp___expr_464 map2)) Bool
  (forall ((temp___465 Int))
    (=>
      (and (<= 0 temp___465) (<= temp___465 3))
      (= (us_attr__init (get1 temp___expr_464 temp___465)) true))))

;; "dynamic_invariant_r"
(define-fun dynamic_invariant_r ((temp___expr_543 map3) (temp___is_init_539 Bool) (temp___skip_constant_540 Bool) (temp___do_toplevel_541 Bool) (temp___do_typ_inv_542 Bool)) Bool
  (and
    (has_bounds2 temp___expr_543 0 10)
    (forall ((temp___544 Int))
      (=>
        (and (<= 0 temp___544) (<= temp___544 10))
        (has_bounds1 (get2 temp___expr_543 temp___544) 0 3)))))

(declare-const key us_rep)

;; "sbox"
(declare-fun sbox ((_ BitVec 32)) (_ BitVec 32))

;; "sbox__function_guard"
(declare-fun sbox__function_guard ((_ BitVec 32)
  (_ BitVec 32)) Bool)

;; "x_times"
(declare-fun x_times ((_ BitVec 32)) (_ BitVec 32))

;; "x_times__function_guard"
(declare-fun x_times__function_guard ((_ BitVec 32)
  (_ BitVec 32)) Bool)

(declare-sort tinteger_32B 0)

;; "tinteger_32B'int"
(declare-fun tinteger_32Bqtint (tinteger_32B) Int)

;; "tinteger_32B'axiom"
(assert
  (forall ((i tinteger_32B))
    (and
      (<= (- 2147483648) (tinteger_32Bqtint i))
      (<= (tinteger_32Bqtint i) 2147483647))))

;; "in_range"
(define-fun in_range1 ((x Int)) Bool
  (and (<= (- 2147483648) x) (<= x 2147483647)))

;; "to_rep"
(define-fun to_rep1 ((x tinteger_32B)) Int
  (tinteger_32Bqtint x))

;; "of_rep"
(declare-fun of_rep1 (Int) tinteger_32B)

;; "inversion_axiom"
(assert
  (forall ((x tinteger_32B))
    (! (= (of_rep1 (to_rep1 x)) x) :pattern ((to_rep1 x)) )))

;; "range_axiom"
(assert
  (forall ((x tinteger_32B))
    (! (in_range1 (to_rep1 x)) :pattern ((to_rep1 x)) )))

;; "coerce_axiom"
(assert
  (forall ((x Int))
    (! (=> (in_range1 x) (= (to_rep1 (of_rep1 x)) x)) :pattern ((to_rep1
                                                                  (of_rep1 x))) )))

(declare-datatypes ()
  ((t (tqtmk (rec__first tinteger_32B)(rec__last tinteger_32B)))))

;; "mk"
(declare-fun mk (Int
  Int) t)

;; "mk_def"
(assert
  (forall ((f Int) (l Int))
    (! (=>
         (in_range1 f)
         (=>
           (in_range1 l)
           (and
             (= (to_rep1 (rec__first (mk f l))) f)
             (= (to_rep1 (rec__last (mk f l))) l)))) :pattern ((mk f l)) )))

(declare-datatypes ()
  ((us_t (us_tqtmk (elts map1)(rt t)))))

;; "of_array"
(define-fun of_array ((a map1) (f Int) (l Int)) us_t
  (us_tqtmk a (mk f l)))

(declare-datatypes ()
  ((t1 (tqtmk1 (rec__first1 tinteger_32B)(rec__last1 tinteger_32B)))))

;; "mk"
(declare-fun mk1 (Int
  Int) t1)

;; "mk_def"
(assert
  (forall ((f Int) (l Int))
    (! (=>
         (in_range1 f)
         (=>
           (in_range1 l)
           (and
             (= (to_rep1 (rec__first1 (mk1 f l))) f)
             (= (to_rep1 (rec__last1 (mk1 f l))) l)))) :pattern ((mk1 f l)) )))

(declare-datatypes ()
  ((us_t1 (us_tqtmk1 (elts1 map3)(rt1 t1)))))

;; "of_array"
(define-fun of_array1 ((a map3) (f Int) (l Int)) us_t1
  (us_tqtmk1 a (mk1 f l)))

(declare-const round_keys map3)

;; "round_keys'unused"
(define-fun round_keysqtunused () map__ref1
  (map__refqtmk1 round_keys))

;; "Assume"
(assert (dynamic_invariant key true false true true))

;; "Assume"
(assert (dynamic_invariant_r round_keys false false true true))

(declare-const key_index Int)

;; "key_index'unused"
(define-fun key_indexqtunused () int__ref
  (int__refqtmk key_index))

;; "H"
(assert (= key_index 0))

;; "Assume"
(assert (in_range key_index))

(declare-const rcon (_ BitVec 32))

;; "rcon'unused"
(define-fun rconqtunused () t__ref
  (t__refqtmk rcon))

;; "H"
(assert (= rcon #x01000000))

;; "Assume"
(assert true)

;; "o"
(define-fun o () us_split_fields
  (us_split_fields1 key))

;; "__split_fields'result'unused"
(define-fun us_split_fieldsqtresultqtunused () us_split_fields
  o)

;; "temp___1277"
(define-fun temp___1277 () map1
  (rec__ada___sparknacl__aes__aes128_key__f o))

;; "rec__ada___sparknacl__aes__aes128_key__f'result'unused"
(define-fun rec__ada___sparknacl__aes__aes128_key__fqtresultqtunused 
  () map1
  temp___1277)

;; "Assert"
(assert (=> (<= 0 3) (and (and (<= 0 0) (<= 0 3)) (and (<= 0 3) (<= 3 3)))))

;; "o"
(define-fun o1 () map1
  (slice temp___1277 0 3))

;; "slice'result'unused"
(define-fun sliceqtresultqtunused () map1
  o1)

;; "temp___1280"
(define-fun temp___1280 () us_t
  (of_array o1 0 3))

;; "of_array'result'unused"
(define-fun of_arrayqtresultqtunused () us_t
  temp___1280)

;; "o"
(define-fun o2 () Int
  0)

;; "first'result'unused"
(define-fun firstqtresultqtunused () Int
  o2)

;; "o"
(define-fun o3 () map1
  o1)

;; "to_array'result'unused"
(define-fun to_arrayqtresultqtunused () map1
  o3)

;; "temp___1281"
(define-fun temp___1281 () map1
  (slide o3 o2 0))

;; "slide'result'unused"
(define-fun slideqtresultqtunused () map1
  temp___1281)

;; "Assert"
(assert (ite (<= 0 3) (<= 0 3) (< 3 0)))

(declare-const state map1)

;; "state'unused"
(define-fun stateqtunused () map__ref
  (map__refqtmk state))

;; "H"
(assert (= state temp___1281))

;; "Assume"
(assert (has_bounds state 0 3))

;; "map__content'result'unused"
(define-fun map__contentqtresultqtunused () map1
  state)

;; "o"
(define-fun o4 () map2
  (convert state))

;; "convert'result'unused"
(define-fun convertqtresultqtunused () map2
  o4)

;; "int__content'result'unused"
(define-fun int__contentqtresultqtunused () Int
  key_index)

;; "map__content'result'unused"
(define-fun map__contentqtresultqtunused1 () map3
  round_keys)

;; "o"
(define-fun o5 () map3
  (set1 round_keys key_index o4))

;; "set'result'unused"
(define-fun setqtresultqtunused () map3
  o5)

(declare-const round_keys1 map3)

;; "round_keys'unused"
(define-fun round_keysqtunused1 () map__ref1
  (map__refqtmk1 round_keys1))

;; "H"
(assert (= round_keys1 o5))

;; "int__content'result'unused"
(define-fun int__contentqtresultqtunused1 () Int
  key_index)

;; "infix <'result'unused"
(define-fun infix_lsqtresultqtunused () Bool
  (ite (< key_index 10) true false))

;; "H"
(assert (< key_index 10))

;; "temp___loop_entry_1299'unused"
(define-fun temp___loop_entry_1299qtunused () map1
  state)

;; "map__content'result'unused"
(define-fun map__contentqtresultqtunused2 () map1
  state)

;; "temp___loop_entry_1297'unused"
(define-fun temp___loop_entry_1297qtunused () (_ BitVec 32)
  rcon)

;; "t__content'result'unused"
(define-fun t__contentqtresultqtunused () (_ BitVec 32)
  rcon)

;; "temp___loop_entry_1296'unused"
(define-fun temp___loop_entry_1296qtunused () Int
  key_index)

;; "int__content'result'unused"
(define-fun int__contentqtresultqtunused2 () Int
  key_index)

;; "temp___loop_entry_1294'unused"
(define-fun temp___loop_entry_1294qtunused () map3
  round_keys1)

;; "map__content'result'unused"
(define-fun map__contentqtresultqtunused3 () map3
  round_keys1)

;; "int__content'result'unused"
(define-fun int__contentqtresultqtunused3 () Int
  key_index)

;; "map__content'result'unused"
(define-fun map__contentqtresultqtunused4 () map3
  round_keys1)

;; "Assert"
(assert
  (=>
    (<= 0 key_index)
    (and (and (<= 0 0) (<= 0 10)) (and (<= 0 key_index) (<= key_index 10)))))

;; "o"
(define-fun o6 () map3
  (slice1 round_keys1 0 key_index))

;; "slice'result'unused"
(define-fun sliceqtresultqtunused1 () map3
  o6)

;; "temp___1305"
(define-fun temp___1305 () us_t1
  (of_array1 o6 0 key_index))

;; "of_array'result'unused"
(define-fun of_arrayqtresultqtunused1 () us_t1
  temp___1305)

;; "_f'unused"
(define-fun usfqtunused () Bool
  (ite (forall ((temp___1306 Int))
         (=>
           (and (<= 0 temp___1306) (<= temp___1306 key_index))
           (us_is_initialized (get2 o6 temp___1306))))
    true
    false))

;; "any'result'unused"
(define-fun anyqtresultqtunused () Bool
  (ite (forall ((temp___1306 Int))
         (=>
           (and (<= 0 temp___1306) (<= temp___1306 key_index))
           (us_is_initialized (get2 o6 temp___1306))))
    true
    false))

(declare-const round_keys2 map3)

(declare-const key_index1 Int)

(declare-const rcon1 (_ BitVec 32))

(declare-const state1 map1)

;; "state'unused"
(define-fun stateqtunused1 () map__ref
  (map__refqtmk state1))

;; "rcon'unused"
(define-fun rconqtunused1 () t__ref
  (t__refqtmk rcon1))

;; "key_index'unused"
(define-fun key_indexqtunused1 () int__ref
  (int__refqtmk key_index1))

;; "round_keys'unused"
(define-fun round_keysqtunused2 () map__ref1
  (map__refqtmk1 round_keys2))

;; "LoopInvariant"
(assert
  (forall ((temp___1315 Int))
    (=>
      (and (<= 0 temp___1315) (<= temp___1315 key_index1))
      (us_is_initialized
        (get2 (slice1 round_keys2 0 key_index1) temp___1315)))))

;; "loop_var___74065'unused"
(define-fun loop_var___74065qtunused () Int
  key_index1)

;; "int__content'result'unused"
(define-fun int__contentqtresultqtunused4 () Int
  key_index1)

;; "Assume"
(assert
  (= (and (ite (and
                 (and
                   (dynamic_invariant_r round_keys2 false true true true)
                   (in_range key_index1))
                 (has_bounds state1 0 3))
            true
            false) (ite (< key_index1 10) true false)) true))

;; "t__content'result'unused"
(define-fun t__contentqtresultqtunused1 () (_ BitVec 32)
  rcon1)

;; "map__content'result'unused"
(define-fun map__contentqtresultqtunused5 () map1
  state1)

;; "o"
(define-fun o7 () u32
  (get state1 0))

;; "get'result'unused"
(define-fun getqtresultqtunused () u32
  o7)

(declare-const o8 (_ BitVec 32))

;; "Ensures"
(assert (= (to_rep o7) o8))

;; "to_rep'result'unused"
(define-fun to_repqtresultqtunused () (_ BitVec 32)
  o8)

;; "o"
(define-fun o9 () (_ BitVec 32)
  (bvxor o8 rcon1))

;; "bw_xor'result'unused"
(define-fun bw_xorqtresultqtunused () (_ BitVec 32)
  o9)

(declare-const o10 u32)

;; "Ensures"
(assert (= (to_rep o10) o9))

;; "of_rep'result'unused"
(define-fun of_repqtresultqtunused () u32
  o10)

;; "map__content'result'unused"
(define-fun map__contentqtresultqtunused6 () map1
  state1)

;; "o"
(define-fun o11 () map1
  (set state1 0 o10))

;; "set'result'unused"
(define-fun setqtresultqtunused1 () map1
  o11)

(declare-const state2 map1)

;; "state'unused"
(define-fun stateqtunused2 () map__ref
  (map__refqtmk state2))

;; "H"
(assert (= state2 o11))

;; "o"
(define-fun o12 () (_ BitVec 32)
  ((_ int2bv 32) 8))

;; "of_int'result'unused"
(define-fun of_intqtresultqtunused () (_ BitVec 32)
  o12)

;; "map__content'result'unused"
(define-fun map__contentqtresultqtunused7 () map1
  state2)

;; "o"
(define-fun o13 () u32
  (get state2 3))

;; "get'result'unused"
(define-fun getqtresultqtunused1 () u32
  o13)

(declare-const o14 (_ BitVec 32))

;; "Ensures"
(assert (= (to_rep o13) o14))

;; "to_rep'result'unused"
(define-fun to_repqtresultqtunused1 () (_ BitVec 32)
  o14)

;; "o"
(define-fun o15 () (_ BitVec 32)
  (bvor (bvshl o14 (bvurem o12 (_ bv32 32))) (bvlshr o14 (bvsub (_ bv32 32) (bvurem 
  o12 (_ bv32 32))))))

;; "rotate_left_bv'result'unused"
(define-fun rotate_left_bvqtresultqtunused () (_ BitVec 32)
  o15)

;; "o"
(define-fun o16 () (_ BitVec 32)
  (sbox o15))

;; "H"
(assert (sbox__function_guard o16 o15))

;; "H"
(assert true)

;; "sbox'result'unused"
(define-fun sboxqtresultqtunused () (_ BitVec 32)
  o16)

;; "map__content'result'unused"
(define-fun map__contentqtresultqtunused8 () map1
  state2)

;; "o"
(define-fun o17 () u32
  (get state2 0))

;; "get'result'unused"
(define-fun getqtresultqtunused2 () u32
  o17)

(declare-const o18 (_ BitVec 32))

;; "Ensures"
(assert (= (to_rep o17) o18))

;; "to_rep'result'unused"
(define-fun to_repqtresultqtunused2 () (_ BitVec 32)
  o18)

;; "o"
(define-fun o19 () (_ BitVec 32)
  (bvxor o18 o16))

;; "bw_xor'result'unused"
(define-fun bw_xorqtresultqtunused1 () (_ BitVec 32)
  o19)

(declare-const o20 u32)

;; "Ensures"
(assert (= (to_rep o20) o19))

;; "of_rep'result'unused"
(define-fun of_repqtresultqtunused1 () u32
  o20)

;; "map__content'result'unused"
(define-fun map__contentqtresultqtunused9 () map1
  state2)

;; "o"
(define-fun o21 () map1
  (set state2 0 o20))

;; "set'result'unused"
(define-fun setqtresultqtunused2 () map1
  o21)

(declare-const state3 map1)

;; "state'unused"
(define-fun stateqtunused3 () map__ref
  (map__refqtmk state3))

;; "H"
(assert (= state3 o21))

;; "map__content'result'unused"
(define-fun map__contentqtresultqtunused10 () map1
  state3)

(declare-const state4 map1)

;; "state'unused"
(define-fun stateqtunused4 () map__ref
  (map__refqtmk state4))

;; "H"
(assert (has_bounds state4 0 3))

;; "H"
(assert true)

;; "H"
(assert true)

;; "t__content'result'unused"
(define-fun t__contentqtresultqtunused2 () (_ BitVec 32)
  rcon1)

;; "o"
(define-fun o22 () (_ BitVec 32)
  (x_times rcon1))

;; "H"
(assert (x_times__function_guard o22 rcon1))

;; "H"
(assert true)

;; "x_times'result'unused"
(define-fun x_timesqtresultqtunused () (_ BitVec 32)
  o22)

;; "int__content'result'unused"
(define-fun int__contentqtresultqtunused5 () Int
  key_index1)

;; "Ensures"
(assert (not (= key_index1 2147483647)))

;; "check_not_last'result'unused"
(define-fun check_not_lastqtresultqtunused () Int
  key_index1)

;; "o"
(define-fun o23 () Int
  (+ key_index1 1))

;; "infix +'result'unused"
(define-fun infix_plqtresultqtunused () Int
  o23)

;; "Ensures"
(assert (in_range o23))

;; "range_check_'result'unused"
(define-fun range_check_qtresultqtunused () Int
  o23)

(declare-const key_index2 Int)

;; "key_index'unused"
(define-fun key_indexqtunused2 () int__ref
  (int__refqtmk key_index2))

;; "H"
(assert (= key_index2 o23))

;; "map__content'result'unused"
(define-fun map__contentqtresultqtunused11 () map1
  state4)

;; "o"
(define-fun o24 () map2
  (convert state4))

;; "convert'result'unused"
(define-fun convertqtresultqtunused1 () map2
  o24)

;; "int__content'result'unused"
(define-fun int__contentqtresultqtunused6 () Int
  key_index2)

;; "map__content'result'unused"
(define-fun map__contentqtresultqtunused12 () map3
  round_keys2)

;; "o"
(define-fun o25 () map3
  (set1 round_keys2 key_index2 o24))

;; "set'result'unused"
(define-fun setqtresultqtunused3 () map3
  o25)

(declare-const round_keys3 map3)

;; "round_keys'unused"
(define-fun round_keysqtunused3 () map__ref1
  (map__refqtmk1 round_keys3))

;; "H"
(assert (= round_keys3 o25))

;; "int__content'result'unused"
(define-fun int__contentqtresultqtunused7 () Int
  key_index2)

;; "infix <'result'unused"
(define-fun infix_lsqtresultqtunused1 () Bool
  (ite (< key_index2 10) true false))

;; "H"
(assert (< key_index2 10))

;; "int__content'result'unused"
(define-fun int__contentqtresultqtunused8 () Int
  key_index2)

;; "map__content'result'unused"
(define-fun map__contentqtresultqtunused13 () map3
  round_keys3)

;; "Assert"
(assert
  (=>
    (<= 0 key_index2)
    (and (and (<= 0 0) (<= 0 10)) (and (<= 0 key_index2) (<= key_index2 10)))))

;; "o"
(define-fun o26 () map3
  (slice1 round_keys3 0 key_index2))

;; "slice'result'unused"
(define-fun sliceqtresultqtunused2 () map3
  o26)

;; "temp___1305"
(define-fun temp___13051 () us_t1
  (of_array1 o26 0 key_index2))

;; "of_array'result'unused"
(define-fun of_arrayqtresultqtunused2 () us_t1
  temp___13051)

;; "_f'unused"
(define-fun usfqtunused1 () Bool
  (ite (forall ((temp___1306 Int))
         (=>
           (and (<= 0 temp___1306) (<= temp___1306 key_index2))
           (us_is_initialized (get2 o26 temp___1306))))
    true
    false))

;; "any'result'unused"
(define-fun anyqtresultqtunused1 () Bool
  (ite (forall ((temp___1306 Int))
         (=>
           (and (<= 0 temp___1306) (<= temp___1306 key_index2))
           (us_is_initialized (get2 o26 temp___1306))))
    true
    false))

;; "loop_var_new___74065'unused"
(define-fun loop_var_new___74065qtunused () Int
  key_index2)

;; "int__content'result'unused"
(define-fun int__contentqtresultqtunused9 () Int
  key_index2)

;; Goal "def'vc"
;; File "sparknacl-aes.ads", line 58, characters 0-0
(assert
  (not (< key_index1 key_index2)))

(check-sat)
